[[28,190,284,585,817,1194,2067,9974,9976,9984],[664,921,2223,2594,3079,3572,4199,4874,5466,7740,8147,8397,8802,9449,9873],[713,1030,1456,1859,2245,4307,4560,4985,6591,7443,8158,8512,8924,9489,9728],[1193,1598,1875,2523,2677,3435,3881,4472,4699,8034,8241,8646,9423,9619,9684],[1359,1683,2151,2576,2901,3069,3490,4163,5566,7379,8109,8785,9435,9654,9680],[1361,1775,2626,2927,3367,3837,5029,6394,6757,7048,7422,7454,7626,8009,8368],[3010,3016,4517,4531,4745,5112,5474,5539,5745,5749,6067,6481,6666,6671,6677]]